# Solution for model cur_assignment
# Objective value = 708.254596504501
Assign[0,0] 0
Assign[0,1] 0
Assign[0,2] 0
Assign[0,3] 0
Assign[0,4] 1
Assign[1,0] 0
Assign[1,1] 0
Assign[1,2] 0
Assign[1,3] 0
Assign[1,4] 1
Assign[2,0] 0
Assign[2,1] 0
Assign[2,2] 0
Assign[2,3] 0
Assign[2,4] 1
Assign[3,0] 0
Assign[3,1] 0
Assign[3,2] 0
Assign[3,3] 0
Assign[3,4] 1
Assign[4,0] 0
Assign[4,1] 0
Assign[4,2] 0
Assign[4,3] 0
Assign[4,4] 1
Assign[5,0] 0
Assign[5,1] 0
Assign[5,2] 0
Assign[5,3] 0
Assign[5,4] 1
Assign[6,0] 0
Assign[6,1] 0
Assign[6,2] 0
Assign[6,3] 0
Assign[6,4] 1
Assign[7,0] 0
Assign[7,1] 0
Assign[7,2] 0
Assign[7,3] 1
Assign[7,4] 0
Assign[8,0] 0
Assign[8,1] 0
Assign[8,2] 0
Assign[8,3] 1
Assign[8,4] 0
Assign[9,0] 0
Assign[9,1] 0
Assign[9,2] 0
Assign[9,3] 1
Assign[9,4] 0
Assign[10,0] 0
Assign[10,1] 0
Assign[10,2] 0
Assign[10,3] 1
Assign[10,4] 0
Assign[11,0] 0
Assign[11,1] 1
Assign[11,2] 0
Assign[11,3] 0
Assign[11,4] 0
Assign[12,0] 0
Assign[12,1] 0
Assign[12,2] 0
Assign[12,3] 0
Assign[12,4] 1
Assign[13,0] 0
Assign[13,1] 0
Assign[13,2] 0
Assign[13,3] 0
Assign[13,4] 1
Assign[14,0] 0
Assign[14,1] 0
Assign[14,2] 0
Assign[14,3] 0
Assign[14,4] 1
Assign[15,0] 0
Assign[15,1] 0
Assign[15,2] 0
Assign[15,3] 0
Assign[15,4] 1
Assign[16,0] 0
Assign[16,1] 0
Assign[16,2] 0
Assign[16,3] 0
Assign[16,4] 1
Assign[17,0] 0
Assign[17,1] 0
Assign[17,2] 0
Assign[17,3] 0
Assign[17,4] 1
Assign[18,0] 0
Assign[18,1] 0
Assign[18,2] 0
Assign[18,3] 0
Assign[18,4] 1
Assign[19,0] 0
Assign[19,1] 0
Assign[19,2] 0
Assign[19,3] 0
Assign[19,4] 1
Assign[20,0] 0
Assign[20,1] 0
Assign[20,2] 0
Assign[20,3] 0
Assign[20,4] 1
Assign[21,0] 0
Assign[21,1] 0
Assign[21,2] 0
Assign[21,3] 0
Assign[21,4] 1
Assign[22,0] 0
Assign[22,1] 0
Assign[22,2] 0
Assign[22,3] 0
Assign[22,4] 1
Assign[23,0] 0
Assign[23,1] 0
Assign[23,2] 0
Assign[23,3] 0
Assign[23,4] 1
Assign[24,0] 0
Assign[24,1] 0
Assign[24,2] 0
Assign[24,3] 0
Assign[24,4] 1
Assign[25,0] 0
Assign[25,1] 0
Assign[25,2] 0
Assign[25,3] 0
Assign[25,4] 1
Assign[26,0] 0
Assign[26,1] 0
Assign[26,2] 0
Assign[26,3] 0
Assign[26,4] 1
Assign[27,0] 0
Assign[27,1] 0
Assign[27,2] 0
Assign[27,3] 0
Assign[27,4] 1
Assign[28,0] 0
Assign[28,1] 0
Assign[28,2] 0
Assign[28,3] 0
Assign[28,4] 1
Assign[29,0] 0
Assign[29,1] 0
Assign[29,2] 0
Assign[29,3] 1
Assign[29,4] 0
Assign[30,0] 0
Assign[30,1] 0
Assign[30,2] 0
Assign[30,3] 0
Assign[30,4] 1
Assign[31,0] 0
Assign[31,1] 0
Assign[31,2] 0
Assign[31,3] 0
Assign[31,4] 1
Assign[32,0] 0
Assign[32,1] 0
Assign[32,2] 0
Assign[32,3] 0
Assign[32,4] 1
Assign[33,0] 0
Assign[33,1] 0
Assign[33,2] 0
Assign[33,3] 0
Assign[33,4] 1
Assign[34,0] 0
Assign[34,1] 0
Assign[34,2] 0
Assign[34,3] 0
Assign[34,4] 1
Assign[35,0] 0
Assign[35,1] 0
Assign[35,2] 0
Assign[35,3] 0
Assign[35,4] 1
Assign[36,0] 0
Assign[36,1] 0
Assign[36,2] 0
Assign[36,3] 1
Assign[36,4] 0
Assign[37,0] 0
Assign[37,1] 0
Assign[37,2] 1
Assign[37,3] 0
Assign[37,4] 0
Assign[38,0] 0
Assign[38,1] 0
Assign[38,2] 0
Assign[38,3] 0
Assign[38,4] 1
Assign[39,0] 0
Assign[39,1] 0
Assign[39,2] 0
Assign[39,3] 0
Assign[39,4] 1
Assign[40,0] 0
Assign[40,1] 0
Assign[40,2] 0
Assign[40,3] 1
Assign[40,4] 0
Assign[41,0] 0
Assign[41,1] 0
Assign[41,2] 0
Assign[41,3] 1
Assign[41,4] 0
Assign[42,0] 0
Assign[42,1] 0
Assign[42,2] 0
Assign[42,3] 1
Assign[42,4] 0
Assign[43,0] 0
Assign[43,1] 0
Assign[43,2] 0
Assign[43,3] 1
Assign[43,4] 0
Assign[44,0] 0
Assign[44,1] 0
Assign[44,2] 0
Assign[44,3] 1
Assign[44,4] 0
Assign[45,0] 0
Assign[45,1] 0
Assign[45,2] 0
Assign[45,3] 1
Assign[45,4] 0
Assign[46,0] 0
Assign[46,1] 0
Assign[46,2] 0
Assign[46,3] 0
Assign[46,4] 1
Assign[47,0] 0
Assign[47,1] 0
Assign[47,2] 0
Assign[47,3] 0
Assign[47,4] 1
Assign[48,0] 0
Assign[48,1] 0
Assign[48,2] 0
Assign[48,3] 1
Assign[48,4] 0
Assign[49,0] 0
Assign[49,1] 0
Assign[49,2] 0
Assign[49,3] 0
Assign[49,4] 1
Assign[50,0] 0
Assign[50,1] 0
Assign[50,2] 0
Assign[50,3] 0
Assign[50,4] 1
Assign[51,0] 0
Assign[51,1] 0
Assign[51,2] 0
Assign[51,3] 1
Assign[51,4] 0
Assign[52,0] 0
Assign[52,1] 0
Assign[52,2] 0
Assign[52,3] 1
Assign[52,4] 0
Assign[53,0] 0
Assign[53,1] 0
Assign[53,2] 0
Assign[53,3] 0
Assign[53,4] 1
Assign[54,0] 0
Assign[54,1] 0
Assign[54,2] 1
Assign[54,3] 0
Assign[54,4] 0
Assign[55,0] 0
Assign[55,1] 0
Assign[55,2] 0
Assign[55,3] 0
Assign[55,4] 1
Assign[56,0] 0
Assign[56,1] 0
Assign[56,2] 0
Assign[56,3] 0
Assign[56,4] 1
Assign[57,0] 0
Assign[57,1] 0
Assign[57,2] 0
Assign[57,3] 0
Assign[57,4] 1
Assign[58,0] 0
Assign[58,1] 0
Assign[58,2] 0
Assign[58,3] 0
Assign[58,4] 1
Assign[59,0] 0
Assign[59,1] 0
Assign[59,2] 0
Assign[59,3] 1
Assign[59,4] 0
Assign[60,0] 0
Assign[60,1] 0
Assign[60,2] 0
Assign[60,3] 0
Assign[60,4] 1
Assign[61,0] 0
Assign[61,1] 0
Assign[61,2] 0
Assign[61,3] 0
Assign[61,4] 1
Assign[62,0] 0
Assign[62,1] 1
Assign[62,2] 0
Assign[62,3] 0
Assign[62,4] 0
Assign[63,0] 0
Assign[63,1] 0
Assign[63,2] 0
Assign[63,3] 1
Assign[63,4] 0
Assign[64,0] 0
Assign[64,1] 0
Assign[64,2] 0
Assign[64,3] 0
Assign[64,4] 1
